c 1 TankWar
c 2 Tank_Player1
c 3 Feature_16
c 4 Feature_17
c 5 Feature_18
c 6 Feature_19
c 7 Feature_20
c 8 Feature_21
c 9 Tank_Player2
c 10 Feature_23
c 11 Feature_24
c 12 Feature_25
c 13 Feature_26
c 14 Feature_27
c 15 Feature_28
c 16 mov
c 17 Feature_30
c 18 Feature_31
c 19 Feature_32
c 20 Feature_33
c 21 Feature_34
c 22 tar
c 23 Hinderniss_Set
c 24 Power_Ups
c 25 Feature_36
c 26 Feature_37
c 27 Feature_38
c 28 Feature_39
c 29 Feature_40
c 30 Feature_41
c 31 Feature_42
c 32 Feature_43
c 33 Feature_44
c 34 Feature_45
c 35 Feature_46
c 36 Feature_47
c 37 Feature_48
c 38 Feature_49
c 39 Feature_50
c 40 Feature_51
c 41 Feature_52
c 42 Feature_53
c 43 Feature_54
c 44 Feature_55
c 45 Feature_56
c 46 Feature_57
c 47 Activate_Power_Up
c 48 Feature_58
c 49 Feature_59
c 50 Feature_60
c 51 Feature_61
c 52 Feature_62
c 53 Feature_63
c 54 Feature_64
c 55 Feature_65
c 56 Background
c 57 Feature_67
c 58 Feature_68
c 59 Feature_69
c 60 Feature_70
c 61 Feature_71
c 62 Feature_72
c 63 Feature_73
c 64 Feature_74
c 65 Feature_75
c 66 Feature_76
c 67 Feature_77
c 68 Feature_78
c 69 Feature_79
c 70 rocketStyle
c 71 Feature_81
c 72 Feature_82
c 73 Feature_83
c 74 Feature_84
c 75 Feature_85
c 76 Sounds
c 77 Player1_Sound_Rotation
c 78 Feature_87
c 79 Feature_88
c 80 Feature_89
c 81 Feature_90
c 82 Feature_91
c 83 Feature_92
c 84 Feature_93
c 85 Feature_94
c 86 Feature_95
c 87 Feature_96
c 88 Feature_97
c 89 Feature_98
c 90 Feature_99
c 91 Feature_100
c 92 Feature_101
c 93 Feature_102
c 94 Player1_Sound_Movement
c 95 Feature_104
c 96 Feature_105
c 97 Feature_106
c 98 Feature_107
c 99 Feature_108
c 100 Feature_109
c 101 Feature_110
c 102 Feature_111
c 103 Feature_112
c 104 Feature_113
c 105 Feature_114
c 106 Feature_115
c 107 Feature_116
c 108 Feature_117
c 109 Feature_118
c 110 Feature_119
c 111 Player2_Sound_Rotation
c 112 Feature_121
c 113 Feature_122
c 114 Feature_123
c 115 Feature_124
c 116 Feature_125
c 117 Feature_126
c 118 Feature_127
c 119 Feature_128
c 120 Feature_129
c 121 Feature_130
c 122 Feature_131
c 123 Feature_132
c 124 Feature_133
c 125 Feature_134
c 126 Feature_135
c 127 Feature_136
c 128 Player2_Sound_Movement
c 129 Feature_138
c 130 Feature_139
c 131 Feature_140
c 132 Feature_141
c 133 Feature_142
c 134 Feature_143
c 135 Feature_144
c 136 Feature_145
c 137 Feature_146
c 138 Feature_147
c 139 Feature_148
c 140 Feature_149
c 141 Feature_150
c 142 Feature_151
c 143 Feature_152
c 144 Feature_153
p cnf 144 769
1 0
-2 1 0
-1 2 0
-3 2 0
-4 2 0
-5 2 0
-6 2 0
-7 2 0
-8 2 0
-2 3 4 5 6 7 8 0
-4 -3 0
-5 -3 0
-6 -3 0
-7 -3 0
-8 -3 0
-5 -4 0
-6 -4 0
-7 -4 0
-8 -4 0
-6 -5 0
-7 -5 0
-8 -5 0
-7 -6 0
-8 -6 0
-8 -7 0
-9 1 0
-1 9 0
-10 9 0
-11 9 0
-12 9 0
-13 9 0
-14 9 0
-15 9 0
-9 10 11 12 13 14 15 0
-11 -10 0
-12 -10 0
-13 -10 0
-14 -10 0
-15 -10 0
-12 -11 0
-13 -11 0
-14 -11 0
-15 -11 0
-13 -12 0
-14 -12 0
-15 -12 0
-14 -13 0
-15 -13 0
-15 -14 0
-16 1 0
-1 16 0
-17 16 0
-18 16 0
-19 16 0
-20 16 0
-21 16 0
-16 17 18 19 20 21 0
-18 -17 0
-19 -17 0
-20 -17 0
-21 -17 0
-19 -18 0
-20 -18 0
-21 -18 0
-20 -19 0
-21 -19 0
-21 -20 0
-22 1 0
-23 1 0
-24 1 0
-1 24 0
-25 24 0
-26 24 0
-27 24 0
-28 24 0
-29 24 0
-30 24 0
-31 24 0
-32 24 0
-33 24 0
-34 24 0
-35 24 0
-36 24 0
-37 24 0
-38 24 0
-39 24 0
-40 24 0
-41 24 0
-42 24 0
-43 24 0
-44 24 0
-45 24 0
-46 24 0
-24 25 26 27 28 29 30 31 32 33 34 35 36 37 38 39 40 41 42 43 44 45 46 0
-47 1 0
-48 47 0
-49 47 0
-50 47 0
-51 47 0
-52 47 0
-53 47 0
-54 47 0
-55 47 0
-56 1 0
-1 56 0
-57 56 0
-58 56 0
-59 56 0
-60 56 0
-61 56 0
-62 56 0
-63 56 0
-64 56 0
-65 56 0
-66 56 0
-67 56 0
-68 56 0
-69 56 0
-56 57 58 59 60 61 62 63 64 65 66 67 68 69 0
-58 -57 0
-59 -57 0
-60 -57 0
-61 -57 0
-62 -57 0
-63 -57 0
-64 -57 0
-65 -57 0
-66 -57 0
-67 -57 0
-68 -57 0
-69 -57 0
-59 -58 0
-60 -58 0
-61 -58 0
-62 -58 0
-63 -58 0
-64 -58 0
-65 -58 0
-66 -58 0
-67 -58 0
-68 -58 0
-69 -58 0
-60 -59 0
-61 -59 0
-62 -59 0
-63 -59 0
-64 -59 0
-65 -59 0
-66 -59 0
-67 -59 0
-68 -59 0
-69 -59 0
-61 -60 0
-62 -60 0
-63 -60 0
-64 -60 0
-65 -60 0
-66 -60 0
-67 -60 0
-68 -60 0
-69 -60 0
-62 -61 0
-63 -61 0
-64 -61 0
-65 -61 0
-66 -61 0
-67 -61 0
-68 -61 0
-69 -61 0
-63 -62 0
-64 -62 0
-65 -62 0
-66 -62 0
-67 -62 0
-68 -62 0
-69 -62 0
-64 -63 0
-65 -63 0
-66 -63 0
-67 -63 0
-68 -63 0
-69 -63 0
-65 -64 0
-66 -64 0
-67 -64 0
-68 -64 0
-69 -64 0
-66 -65 0
-67 -65 0
-68 -65 0
-69 -65 0
-67 -66 0
-68 -66 0
-69 -66 0
-68 -67 0
-69 -67 0
-69 -68 0
-70 1 0
-1 70 0
-71 70 0
-72 70 0
-73 70 0
-74 70 0
-75 70 0
-70 71 72 73 74 75 0
-72 -71 0
-73 -71 0
-74 -71 0
-75 -71 0
-73 -72 0
-74 -72 0
-75 -72 0
-74 -73 0
-75 -73 0
-75 -74 0
-76 1 0
-1 76 0
-77 76 0
-78 77 0
-79 77 0
-80 77 0
-81 77 0
-82 77 0
-83 77 0
-84 77 0
-85 77 0
-86 77 0
-87 77 0
-88 77 0
-89 77 0
-90 77 0
-91 77 0
-92 77 0
-93 77 0
-77 78 79 80 81 82 83 84 85 86 87 88 89 90 91 92 93 0
-79 -78 0
-80 -78 0
-81 -78 0
-82 -78 0
-83 -78 0
-84 -78 0
-85 -78 0
-86 -78 0
-87 -78 0
-88 -78 0
-89 -78 0
-90 -78 0
-91 -78 0
-92 -78 0
-93 -78 0
-80 -79 0
-81 -79 0
-82 -79 0
-83 -79 0
-84 -79 0
-85 -79 0
-86 -79 0
-87 -79 0
-88 -79 0
-89 -79 0
-90 -79 0
-91 -79 0
-92 -79 0
-93 -79 0
-81 -80 0
-82 -80 0
-83 -80 0
-84 -80 0
-85 -80 0
-86 -80 0
-87 -80 0
-88 -80 0
-89 -80 0
-90 -80 0
-91 -80 0
-92 -80 0
-93 -80 0
-82 -81 0
-83 -81 0
-84 -81 0
-85 -81 0
-86 -81 0
-87 -81 0
-88 -81 0
-89 -81 0
-90 -81 0
-91 -81 0
-92 -81 0
-93 -81 0
-83 -82 0
-84 -82 0
-85 -82 0
-86 -82 0
-87 -82 0
-88 -82 0
-89 -82 0
-90 -82 0
-91 -82 0
-92 -82 0
-93 -82 0
-84 -83 0
-85 -83 0
-86 -83 0
-87 -83 0
-88 -83 0
-89 -83 0
-90 -83 0
-91 -83 0
-92 -83 0
-93 -83 0
-85 -84 0
-86 -84 0
-87 -84 0
-88 -84 0
-89 -84 0
-90 -84 0
-91 -84 0
-92 -84 0
-93 -84 0
-86 -85 0
-87 -85 0
-88 -85 0
-89 -85 0
-90 -85 0
-91 -85 0
-92 -85 0
-93 -85 0
-87 -86 0
-88 -86 0
-89 -86 0
-90 -86 0
-91 -86 0
-92 -86 0
-93 -86 0
-88 -87 0
-89 -87 0
-90 -87 0
-91 -87 0
-92 -87 0
-93 -87 0
-89 -88 0
-90 -88 0
-91 -88 0
-92 -88 0
-93 -88 0
-90 -89 0
-91 -89 0
-92 -89 0
-93 -89 0
-91 -90 0
-92 -90 0
-93 -90 0
-92 -91 0
-93 -91 0
-93 -92 0
-94 76 0
-95 94 0
-96 94 0
-97 94 0
-98 94 0
-99 94 0
-100 94 0
-101 94 0
-102 94 0
-103 94 0
-104 94 0
-105 94 0
-106 94 0
-107 94 0
-108 94 0
-109 94 0
-110 94 0
-94 95 96 97 98 99 100 101 102 103 104 105 106 107 108 109 110 0
-96 -95 0
-97 -95 0
-98 -95 0
-99 -95 0
-100 -95 0
-101 -95 0
-102 -95 0
-103 -95 0
-104 -95 0
-105 -95 0
-106 -95 0
-107 -95 0
-108 -95 0
-109 -95 0
-110 -95 0
-97 -96 0
-98 -96 0
-99 -96 0
-100 -96 0
-101 -96 0
-102 -96 0
-103 -96 0
-104 -96 0
-105 -96 0
-106 -96 0
-107 -96 0
-108 -96 0
-109 -96 0
-110 -96 0
-98 -97 0
-99 -97 0
-100 -97 0
-101 -97 0
-102 -97 0
-103 -97 0
-104 -97 0
-105 -97 0
-106 -97 0
-107 -97 0
-108 -97 0
-109 -97 0
-110 -97 0
-99 -98 0
-100 -98 0
-101 -98 0
-102 -98 0
-103 -98 0
-104 -98 0
-105 -98 0
-106 -98 0
-107 -98 0
-108 -98 0
-109 -98 0
-110 -98 0
-100 -99 0
-101 -99 0
-102 -99 0
-103 -99 0
-104 -99 0
-105 -99 0
-106 -99 0
-107 -99 0
-108 -99 0
-109 -99 0
-110 -99 0
-101 -100 0
-102 -100 0
-103 -100 0
-104 -100 0
-105 -100 0
-106 -100 0
-107 -100 0
-108 -100 0
-109 -100 0
-110 -100 0
-102 -101 0
-103 -101 0
-104 -101 0
-105 -101 0
-106 -101 0
-107 -101 0
-108 -101 0
-109 -101 0
-110 -101 0
-103 -102 0
-104 -102 0
-105 -102 0
-106 -102 0
-107 -102 0
-108 -102 0
-109 -102 0
-110 -102 0
-104 -103 0
-105 -103 0
-106 -103 0
-107 -103 0
-108 -103 0
-109 -103 0
-110 -103 0
-105 -104 0
-106 -104 0
-107 -104 0
-108 -104 0
-109 -104 0
-110 -104 0
-106 -105 0
-107 -105 0
-108 -105 0
-109 -105 0
-110 -105 0
-107 -106 0
-108 -106 0
-109 -106 0
-110 -106 0
-108 -107 0
-109 -107 0
-110 -107 0
-109 -108 0
-110 -108 0
-110 -109 0
-111 76 0
-112 111 0
-113 111 0
-114 111 0
-115 111 0
-116 111 0
-117 111 0
-118 111 0
-119 111 0
-120 111 0
-121 111 0
-122 111 0
-123 111 0
-124 111 0
-125 111 0
-126 111 0
-127 111 0
-111 112 113 114 115 116 117 118 119 120 121 122 123 124 125 126 127 0
-113 -112 0
-114 -112 0
-115 -112 0
-116 -112 0
-117 -112 0
-118 -112 0
-119 -112 0
-120 -112 0
-121 -112 0
-122 -112 0
-123 -112 0
-124 -112 0
-125 -112 0
-126 -112 0
-127 -112 0
-114 -113 0
-115 -113 0
-116 -113 0
-117 -113 0
-118 -113 0
-119 -113 0
-120 -113 0
-121 -113 0
-122 -113 0
-123 -113 0
-124 -113 0
-125 -113 0
-126 -113 0
-127 -113 0
-115 -114 0
-116 -114 0
-117 -114 0
-118 -114 0
-119 -114 0
-120 -114 0
-121 -114 0
-122 -114 0
-123 -114 0
-124 -114 0
-125 -114 0
-126 -114 0
-127 -114 0
-116 -115 0
-117 -115 0
-118 -115 0
-119 -115 0
-120 -115 0
-121 -115 0
-122 -115 0
-123 -115 0
-124 -115 0
-125 -115 0
-126 -115 0
-127 -115 0
-117 -116 0
-118 -116 0
-119 -116 0
-120 -116 0
-121 -116 0
-122 -116 0
-123 -116 0
-124 -116 0
-125 -116 0
-126 -116 0
-127 -116 0
-118 -117 0
-119 -117 0
-120 -117 0
-121 -117 0
-122 -117 0
-123 -117 0
-124 -117 0
-125 -117 0
-126 -117 0
-127 -117 0
-119 -118 0
-120 -118 0
-121 -118 0
-122 -118 0
-123 -118 0
-124 -118 0
-125 -118 0
-126 -118 0
-127 -118 0
-120 -119 0
-121 -119 0
-122 -119 0
-123 -119 0
-124 -119 0
-125 -119 0
-126 -119 0
-127 -119 0
-121 -120 0
-122 -120 0
-123 -120 0
-124 -120 0
-125 -120 0
-126 -120 0
-127 -120 0
-122 -121 0
-123 -121 0
-124 -121 0
-125 -121 0
-126 -121 0
-127 -121 0
-123 -122 0
-124 -122 0
-125 -122 0
-126 -122 0
-127 -122 0
-124 -123 0
-125 -123 0
-126 -123 0
-127 -123 0
-125 -124 0
-126 -124 0
-127 -124 0
-126 -125 0
-127 -125 0
-127 -126 0
-128 76 0
-129 128 0
-130 128 0
-131 128 0
-132 128 0
-133 128 0
-134 128 0
-135 128 0
-136 128 0
-137 128 0
-138 128 0
-139 128 0
-140 128 0
-141 128 0
-142 128 0
-143 128 0
-144 128 0
-128 129 130 131 132 133 134 135 136 137 138 139 140 141 142 143 144 0
-130 -129 0
-131 -129 0
-132 -129 0
-133 -129 0
-134 -129 0
-135 -129 0
-136 -129 0
-137 -129 0
-138 -129 0
-139 -129 0
-140 -129 0
-141 -129 0
-142 -129 0
-143 -129 0
-144 -129 0
-131 -130 0
-132 -130 0
-133 -130 0
-134 -130 0
-135 -130 0
-136 -130 0
-137 -130 0
-138 -130 0
-139 -130 0
-140 -130 0
-141 -130 0
-142 -130 0
-143 -130 0
-144 -130 0
-132 -131 0
-133 -131 0
-134 -131 0
-135 -131 0
-136 -131 0
-137 -131 0
-138 -131 0
-139 -131 0
-140 -131 0
-141 -131 0
-142 -131 0
-143 -131 0
-144 -131 0
-133 -132 0
-134 -132 0
-135 -132 0
-136 -132 0
-137 -132 0
-138 -132 0
-139 -132 0
-140 -132 0
-141 -132 0
-142 -132 0
-143 -132 0
-144 -132 0
-134 -133 0
-135 -133 0
-136 -133 0
-137 -133 0
-138 -133 0
-139 -133 0
-140 -133 0
-141 -133 0
-142 -133 0
-143 -133 0
-144 -133 0
-135 -134 0
-136 -134 0
-137 -134 0
-138 -134 0
-139 -134 0
-140 -134 0
-141 -134 0
-142 -134 0
-143 -134 0
-144 -134 0
-136 -135 0
-137 -135 0
-138 -135 0
-139 -135 0
-140 -135 0
-141 -135 0
-142 -135 0
-143 -135 0
-144 -135 0
-137 -136 0
-138 -136 0
-139 -136 0
-140 -136 0
-141 -136 0
-142 -136 0
-143 -136 0
-144 -136 0
-138 -137 0
-139 -137 0
-140 -137 0
-141 -137 0
-142 -137 0
-143 -137 0
-144 -137 0
-139 -138 0
-140 -138 0
-141 -138 0
-142 -138 0
-143 -138 0
-144 -138 0
-140 -139 0
-141 -139 0
-142 -139 0
-143 -139 0
-144 -139 0
-141 -140 0
-142 -140 0
-143 -140 0
-144 -140 0
-142 -141 0
-143 -141 0
-144 -141 0
-143 -142 0
-144 -142 0
-144 -143 0
